SECTION GRAPH
NODES 7
EDGES 9
E 1 2 2
E 1 5 5
E 1 6 3
E 5 6 3
E 2 5 4
E 3 5 1
E 4 5 2
E 1 7 1
E 3 4 0
END

SECTION Terminals
Terminals 5
T 7
T 2
T 6
T 3
T 4
END

SECTION Tree Decomposition
s td 4 2 7
b 1 1 2 5
b 2 3 4 5
b 3 1 5 6
b 4 1 7
1 2
1 3
1 4
